100 4950
1 2 3
1 3 2
1 4 3
1 5 5
1 6 5
1 7 4
1 8 1
1 9 3
1 10 3
1 11 2
1 12 1
1 13 1
1 14 4
1 15 1
1 16 1
1 17 3
1 18 1
1 19 1
1 20 5
1 21 3
1 22 3
1 23 1
1 24 1
1 25 5
1 26 4
1 27 4
1 28 1
1 29 4
1 30 5
1 31 4
1 32 4
1 33 1
1 34 3
1 35 4
1 36 4
1 37 3
1 38 4
1 39 1
1 40 1
1 41 2
1 42 1
1 43 2
1 44 1
1 45 4
1 46 4
1 47 5
1 48 1
1 49 2
1 50 4
1 51 4
1 52 3
1 53 1
1 54 5
1 55 2
1 56 3
1 57 2
1 58 4
1 59 2
1 60 3
1 61 1
1 62 2
1 63 3
1 64 3
1 65 5
1 66 2
1 67 1
1 68 4
1 69 2
1 70 5
1 71 3
1 72 5
1 73 3
1 74 4
1 75 1
1 76 5
1 77 5
1 78 4
1 79 1
1 80 5
1 81 1
1 82 3
1 83 4
1 84 1
1 85 1
1 86 4
1 87 5
1 88 3
1 89 3
1 90 3
1 91 4
1 92 5
1 93 4
1 94 2
1 95 3
1 96 4
1 97 4
1 98 1
1 99 5
1 100 2
2 3 3
2 4 4
2 5 1
2 6 4
2 7 5
2 8 2
2 9 5
2 10 2
2 11 4
2 12 5
2 13 1
2 14 1
2 15 3
2 16 4
2 17 2
2 18 5
2 19 1
2 20 4
2 21 1
2 22 4
2 23 2
2 24 5
2 25 1
2 26 4
2 27 3
2 28 3
2 29 5
2 30 3
2 31 3
2 32 4
2 33 4
2 34 1
2 35 5
2 36 5
2 37 3
2 38 5
2 39 1
2 40 4
2 41 3
2 42 1
2 43 3
2 44 3
2 45 5
2 46 4
2 47 4
2 48 2
2 49 4
2 50 2
2 51 3
2 52 1
2 53 4
2 54 4
2 55 5
2 56 2
2 57 5
2 58 2
2 59 2
2 60 2
2 61 3
2 62 2
2 63 4
2 64 4
2 65 1
2 66 3
2 67 2
2 68 4
2 69 5
2 70 1
2 71 5
2 72 2
2 73 1
2 74 3
2 75 4
2 76 3
2 77 3
2 78 4
2 79 4
2 80 1
2 81 4
2 82 5
2 83 2
2 84 2
2 85 4
2 86 4
2 87 2
2 88 3
2 89 5
2 90 5
2 91 3
2 92 4
2 93 4
2 94 2
2 95 3
2 96 1
2 97 4
2 98 4
2 99 4
2 100 5
3 4 4
3 5 4
3 6 5
3 7 5
3 8 3
3 9 1
3 10 3
3 11 5
3 12 3
3 13 3
3 14 2
3 15 5
3 16 4
3 17 1
3 18 1
3 19 2
3 20 5
3 21 5
3 22 3
3 23 4
3 24 2
3 25 3
3 26 4
3 27 1
3 28 2
3 29 4
3 30 2
3 31 3
3 32 5
3 33 3
3 34 2
3 35 1
3 36 1
3 37 2
3 38 5
3 39 5
3 40 2
3 41 1
3 42 4
3 43 3
3 44 3
3 45 1
3 46 3
3 47 1
3 48 1
3 49 2
3 50 5
3 51 2
3 52 1
3 53 3
3 54 2
3 55 1
3 56 1
3 57 3
3 58 1
3 59 4
3 60 5
3 61 1
3 62 2
3 63 1
3 64 2
3 65 4
3 66 1
3 67 1
3 68 5
3 69 5
3 70 4
3 71 4
3 72 1
3 73 2
3 74 2
3 75 5
3 76 4
3 77 3
3 78 1
3 79 4
3 80 1
3 81 5
3 82 4
3 83 3
3 84 3
3 85 4
3 86 1
3 87 4
3 88 4
3 89 5
3 90 2
3 91 1
3 92 1
3 93 1
3 94 1
3 95 3
3 96 4
3 97 1
3 98 5
3 99 3
3 100 4
4 5 4
4 6 5
4 7 5
4 8 1
4 9 4
4 10 5
4 11 1
4 12 4
4 13 1
4 14 2
4 15 3
4 16 5
4 17 4
4 18 3
4 19 3
4 20 4
4 21 2
4 22 4
4 23 5
4 24 1
4 25 5
4 26 5
4 27 4
4 28 5
4 29 2
4 30 3
4 31 2
4 32 1
4 33 2
4 34 3
4 35 2
4 36 2
4 37 1
4 38 1
4 39 4
4 40 2
4 41 5
4 42 3
4 43 2
4 44 2
4 45 5
4 46 5
4 47 1
4 48 1
4 49 5
4 50 3
4 51 4
4 52 5
4 53 3
4 54 1
4 55 5
4 56 2
4 57 5
4 58 1
4 59 4
4 60 2
4 61 4
4 62 5
4 63 4
4 64 1
4 65 4
4 66 1
4 67 5
4 68 2
4 69 1
4 70 3
4 71 5
4 72 5
4 73 1
4 74 5
4 75 1
4 76 4
4 77 2
4 78 5
4 79 3
4 80 2
4 81 2
4 82 2
4 83 5
4 84 1
4 85 3
4 86 1
4 87 5
4 88 2
4 89 3
4 90 3
4 91 3
4 92 1
4 93 2
4 94 2
4 95 1
4 96 3
4 97 4
4 98 2
4 99 2
4 100 1
5 6 4
5 7 4
5 8 5
5 9 4
5 10 3
5 11 4
5 12 3
5 13 5
5 14 5
5 15 4
5 16 2
5 17 2
5 18 5
5 19 2
5 20 5
5 21 3
5 22 2
5 23 1
5 24 5
5 25 1
5 26 4
5 27 2
5 28 2
5 29 5
5 30 2
5 31 2
5 32 2
5 33 2
5 34 1
5 35 3
5 36 5
5 37 1
5 38 3
5 39 1
5 40 4
5 41 3
5 42 3
5 43 1
5 44 4
5 45 2
5 46 4
5 47 3
5 48 5
5 49 5
5 50 1
5 51 5
5 52 5
5 53 2
5 54 2
5 55 2
5 56 5
5 57 2
5 58 2
5 59 5
5 60 1
5 61 3
5 62 4
5 63 2
5 64 5
5 65 2
5 66 1
5 67 1
5 68 4
5 69 1
5 70 4
5 71 1
5 72 5
5 73 4
5 74 3
5 75 3
5 76 3
5 77 4
5 78 2
5 79 5
5 80 4
5 81 5
5 82 2
5 83 4
5 84 1
5 85 3
5 86 2
5 87 5
5 88 1
5 89 2
5 90 2
5 91 4
5 92 1
5 93 5
5 94 5
5 95 4
5 96 4
5 97 4
5 98 2
5 99 3
5 100 4
6 7 5
6 8 3
6 9 2
6 10 4
6 11 5
6 12 4
6 13 1
6 14 1
6 15 2
6 16 5
6 17 3
6 18 2
6 19 5
6 20 5
6 21 2
6 22 1
6 23 1
6 24 4
6 25 5
6 26 4
6 27 3
6 28 1
6 29 2
6 30 5
6 31 2
6 32 3
6 33 5
6 34 1
6 35 5
6 36 5
6 37 2
6 38 2
6 39 3
6 40 4
6 41 2
6 42 1
6 43 3
6 44 2
6 45 1
6 46 1
6 47 4
6 48 3
6 49 5
6 50 3
6 51 5
6 52 2
6 53 5
6 54 2
6 55 5
6 56 1
6 57 2
6 58 5
6 59 5
6 60 3
6 61 4
6 62 5
6 63 1
6 64 1
6 65 3
6 66 2
6 67 2
6 68 5
6 69 1
6 70 4
6 71 4
6 72 1
6 73 3
6 74 1
6 75 4
6 76 2
6 77 3
6 78 3
6 79 2
6 80 2
6 81 5
6 82 4
6 83 4
6 84 2
6 85 3
6 86 4
6 87 3
6 88 5
6 89 1
6 90 2
6 91 2
6 92 5
6 93 4
6 94 4
6 95 1
6 96 1
6 97 5
6 98 5
6 99 2
6 100 2
7 8 3
7 9 2
7 10 3
7 11 3
7 12 1
7 13 3
7 14 1
7 15 2
7 16 1
7 17 5
7 18 2
7 19 4
7 20 4
7 21 3
7 22 1
7 23 1
7 24 4
7 25 5
7 26 1
7 27 5
7 28 3
7 29 5
7 30 4
7 31 1
7 32 2
7 33 2
7 34 5
7 35 3
7 36 4
7 37 3
7 38 1
7 39 5
7 40 1
7 41 4
7 42 5
7 43 5
7 44 1
7 45 4
7 46 2
7 47 1
7 48 3
7 49 5
7 50 4
7 51 4
7 52 5
7 53 4
7 54 3
7 55 2
7 56 5
7 57 4
7 58 3
7 59 2
7 60 4
7 61 1
7 62 4
7 63 5
7 64 5
7 65 4
7 66 4
7 67 4
7 68 3
7 69 4
7 70 5
7 71 3
7 72 2
7 73 4
7 74 5
7 75 5
7 76 2
7 77 2
7 78 4
7 79 3
7 80 3
7 81 2
7 82 4
7 83 5
7 84 2
7 85 3
7 86 5
7 87 5
7 88 1
7 89 2
7 90 1
7 91 3
7 92 1
7 93 3
7 94 3
7 95 4
7 96 5
7 97 4
7 98 3
7 99 2
7 100 5
8 9 3
8 10 3
8 11 4
8 12 5
8 13 5
8 14 3
8 15 5
8 16 3
8 17 5
8 18 1
8 19 1
8 20 5
8 21 2
8 22 3
8 23 3
8 24 5
8 25 1
8 26 1
8 27 5
8 28 5
8 29 1
8 30 4
8 31 1
8 32 5
8 33 2
8 34 2
8 35 3
8 36 5
8 37 3
8 38 2
8 39 5
8 40 1
8 41 4
8 42 2
8 43 1
8 44 2
8 45 5
8 46 3
8 47 5
8 48 3
8 49 3
8 50 1
8 51 3
8 52 3
8 53 5
8 54 1
8 55 2
8 56 1
8 57 4
8 58 2
8 59 1
8 60 5
8 61 5
8 62 1
8 63 3
8 64 3
8 65 2
8 66 5
8 67 5
8 68 5
8 69 4
8 70 5
8 71 1
8 72 1
8 73 1
8 74 4
8 75 1
8 76 5
8 77 2
8 78 2
8 79 2
8 80 2
8 81 4
8 82 1
8 83 4
8 84 2
8 85 5
8 86 1
8 87 2
8 88 1
8 89 5
8 90 3
8 91 1
8 92 2
8 93 3
8 94 3
8 95 3
8 96 4
8 97 5
8 98 4
8 99 3
8 100 5
9 10 4
9 11 2
9 12 4
9 13 5
9 14 5
9 15 2
9 16 1
9 17 5
9 18 5
9 19 5
9 20 3
9 21 3
9 22 5
9 23 2
9 24 4
9 25 2
9 26 3
9 27 2
9 28 1
9 29 2
9 30 5
9 31 3
9 32 1
9 33 5
9 34 1
9 35 1
9 36 5
9 37 2
9 38 3
9 39 4
9 40 1
9 41 4
9 42 1
9 43 3
9 44 2
9 45 1
9 46 5
9 47 3
9 48 4
9 49 4
9 50 2
9 51 2
9 52 2
9 53 3
9 54 4
9 55 3
9 56 2
9 57 1
9 58 2
9 59 5
9 60 1
9 61 4
9 62 5
9 63 4
9 64 1
9 65 1
9 66 5
9 67 4
9 68 1
9 69 1
9 70 5
9 71 5
9 72 5
9 73 2
9 74 3
9 75 1
9 76 3
9 77 3
9 78 2
9 79 5
9 80 5
9 81 2
9 82 4
9 83 4
9 84 5
9 85 2
9 86 4
9 87 5
9 88 2
9 89 5
9 90 5
9 91 1
9 92 5
9 93 2
9 94 2
9 95 4
9 96 4
9 97 2
9 98 2
9 99 2
9 100 2
10 11 1
10 12 5
10 13 1
10 14 4
10 15 4
10 16 4
10 17 5
10 18 2
10 19 2
10 20 3
10 21 1
10 22 2
10 23 4
10 24 3
10 25 1
10 26 1
10 27 4
10 28 2
10 29 3
10 30 5
10 31 2
10 32 5
10 33 3
10 34 4
10 35 2
10 36 3
10 37 2
10 38 2
10 39 4
10 40 3
10 41 1
10 42 2
10 43 4
10 44 4
10 45 2
10 46 5
10 47 5
10 48 2
10 49 3
10 50 5
10 51 2
10 52 3
10 53 1
10 54 2
10 55 3
10 56 5
10 57 1
10 58 3
10 59 3
10 60 4
10 61 4
10 62 5
10 63 3
10 64 2
10 65 3
10 66 2
10 67 3
10 68 2
10 69 4
10 70 5
10 71 4
10 72 1
10 73 4
10 74 2
10 75 5
10 76 3
10 77 3
10 78 4
10 79 5
10 80 1
10 81 1
10 82 3
10 83 5
10 84 1
10 85 3
10 86 4
10 87 2
10 88 2
10 89 4
10 90 3
10 91 2
10 92 2
10 93 2
10 94 3
10 95 2
10 96 1
10 97 1
10 98 3
10 99 4
10 100 4
11 12 5
11 13 5
11 14 5
11 15 5
11 16 2
11 17 2
11 18 5
11 19 5
11 20 2
11 21 2
11 22 4
11 23 2
11 24 2
11 25 1
11 26 4
11 27 4
11 28 1
11 29 4
11 30 5
11 31 3
11 32 4
11 33 3
11 34 1
11 35 4
11 36 4
11 37 2
11 38 3
11 39 4
11 40 3
11 41 2
11 42 4
11 43 4
11 44 3
11 45 2
11 46 5
11 47 5
11 48 4
11 49 4
11 50 3
11 51 3
11 52 1
11 53 3
11 54 5
11 55 2
11 56 2
11 57 5
11 58 4
11 59 1
11 60 5
11 61 3
11 62 4
11 63 3
11 64 3
11 65 2
11 66 1
11 67 1
11 68 2
11 69 2
11 70 1
11 71 1
11 72 4
11 73 2
11 74 4
11 75 4
11 76 1
11 77 1
11 78 3
11 79 5
11 80 2
11 81 5
11 82 3
11 83 4
11 84 4
11 85 4
11 86 2
11 87 5
11 88 3
11 89 3
11 90 2
11 91 1
11 92 1
11 93 2
11 94 4
11 95 3
11 96 2
11 97 1
11 98 2
11 99 1
11 100 4
12 13 4
12 14 4
12 15 4
12 16 1
12 17 1
12 18 3
12 19 2
12 20 1
12 21 3
12 22 3
12 23 5
12 24 3
12 25 4
12 26 4
12 27 3
12 28 4
12 29 5
12 30 3
12 31 2
12 32 1
12 33 3
12 34 5
12 35 3
12 36 5
12 37 2
12 38 2
12 39 4
12 40 3
12 41 4
12 42 1
12 43 3
12 44 4
12 45 4
12 46 5
12 47 4
12 48 4
12 49 5
12 50 2
12 51 3
12 52 5
12 53 2
12 54 5
12 55 3
12 56 5
12 57 3
12 58 5
12 59 4
12 60 1
12 61 2
12 62 4
12 63 3
12 64 5
12 65 1
12 66 4
12 67 2
12 68 2
12 69 1
12 70 3
12 71 3
12 72 2
12 73 5
12 74 4
12 75 1
12 76 3
12 77 3
12 78 5
12 79 2
12 80 2
12 81 4
12 82 4
12 83 5
12 84 5
12 85 1
12 86 5
12 87 4
12 88 2
12 89 3
12 90 4
12 91 1
12 92 1
12 93 5
12 94 4
12 95 2
12 96 1
12 97 4
12 98 5
12 99 5
12 100 3
13 14 3
13 15 2
13 16 4
13 17 1
13 18 2
13 19 5
13 20 5
13 21 3
13 22 5
13 23 2
13 24 3
13 25 2
13 26 5
13 27 1
13 28 1
13 29 1
13 30 5
13 31 1
13 32 4
13 33 1
13 34 2
13 35 3
13 36 1
13 37 4
13 38 5
13 39 1
13 40 2
13 41 5
13 42 3
13 43 2
13 44 2
13 45 5
13 46 5
13 47 3
13 48 5
13 49 3
13 50 5
13 51 1
13 52 1
13 53 4
13 54 3
13 55 2
13 56 3
13 57 4
13 58 1
13 59 1
13 60 1
13 61 2
13 62 4
13 63 3
13 64 2
13 65 5
13 66 5
13 67 1
13 68 1
13 69 5
13 70 5
13 71 5
13 72 2
13 73 1
13 74 5
13 75 5
13 76 5
13 77 2
13 78 2
13 79 1
13 80 1
13 81 5
13 82 1
13 83 5
13 84 1
13 85 5
13 86 4
13 87 5
13 88 1
13 89 5
13 90 3
13 91 1
13 92 3
13 93 2
13 94 1
13 95 5
13 96 2
13 97 1
13 98 2
13 99 1
13 100 4
14 15 3
14 16 2
14 17 1
14 18 4
14 19 4
14 20 5
14 21 5
14 22 2
14 23 5
14 24 5
14 25 1
14 26 5
14 27 3
14 28 2
14 29 4
14 30 5
14 31 1
14 32 5
14 33 2
14 34 2
14 35 3
14 36 3
14 37 2
14 38 2
14 39 4
14 40 3
14 41 2
14 42 2
14 43 2
14 44 4
14 45 4
14 46 4
14 47 1
14 48 5
14 49 3
14 50 3
14 51 4
14 52 5
14 53 2
14 54 3
14 55 4
14 56 2
14 57 3
14 58 5
14 59 1
14 60 2
14 61 5
14 62 4
14 63 2
14 64 3
14 65 3
14 66 2
14 67 2
14 68 4
14 69 1
14 70 4
14 71 5
14 72 3
14 73 1
14 74 2
14 75 2
14 76 2
14 77 4
14 78 2
14 79 5
14 80 1
14 81 5
14 82 5
14 83 5
14 84 3
14 85 2
14 86 1
14 87 5
14 88 1
14 89 1
14 90 3
14 91 3
14 92 5
14 93 4
14 94 2
14 95 2
14 96 4
14 97 2
14 98 2
14 99 5
14 100 5
15 16 2
15 17 5
15 18 4
15 19 2
15 20 1
15 21 4
15 22 5
15 23 3
15 24 3
15 25 4
15 26 5
15 27 2
15 28 4
15 29 4
15 30 5
15 31 3
15 32 3
15 33 5
15 34 3
15 35 3
15 36 4
15 37 3
15 38 3
15 39 5
15 40 2
15 41 5
15 42 1
15 43 1
15 44 5
15 45 1
15 46 3
15 47 2
15 48 3
15 49 5
15 50 5
15 51 1
15 52 4
15 53 3
15 54 3
15 55 3
15 56 1
15 57 4
15 58 2
15 59 1
15 60 3
15 61 3
15 62 2
15 63 5
15 64 2
15 65 2
15 66 1
15 67 2
15 68 5
15 69 5
15 70 5
15 71 1
15 72 5
15 73 1
15 74 3
15 75 2
15 76 1
15 77 3
15 78 4
15 79 2
15 80 5
15 81 2
15 82 5
15 83 5
15 84 1
15 85 2
15 86 1
15 87 5
15 88 3
15 89 4
15 90 1
15 91 4
15 92 4
15 93 5
15 94 1
15 95 1
15 96 1
15 97 2
15 98 1
15 99 5
15 100 5
16 17 2
16 18 5
16 19 1
16 20 4
16 21 1
16 22 5
16 23 4
16 24 1
16 25 5
16 26 5
16 27 5
16 28 2
16 29 4
16 30 2
16 31 4
16 32 1
16 33 1
16 34 2
16 35 2
16 36 4
16 37 5
16 38 2
16 39 2
16 40 4
16 41 5
16 42 3
16 43 4
16 44 1
16 45 5
16 46 5
16 47 3
16 48 4
16 49 1
16 50 4
16 51 3
16 52 3
16 53 3
16 54 4
16 55 4
16 56 5
16 57 2
16 58 1
16 59 1
16 60 4
16 61 2
16 62 2
16 63 3
16 64 2
16 65 1
16 66 5
16 67 1
16 68 4
16 69 4
16 70 5
16 71 5
16 72 2
16 73 1
16 74 2
16 75 3
16 76 3
16 77 5
16 78 1
16 79 3
16 80 1
16 81 5
16 82 4
16 83 1
16 84 4
16 85 2
16 86 3
16 87 1
16 88 5
16 89 2
16 90 5
16 91 3
16 92 1
16 93 1
16 94 3
16 95 4
16 96 3
16 97 4
16 98 2
16 99 3
16 100 3
17 18 1
17 19 2
17 20 3
17 21 5
17 22 1
17 23 5
17 24 1
17 25 2
17 26 5
17 27 2
17 28 4
17 29 1
17 30 5
17 31 4
17 32 5
17 33 2
17 34 5
17 35 4
17 36 5
17 37 1
17 38 5
17 39 1
17 40 1
17 41 2
17 42 5
17 43 2
17 44 3
17 45 1
17 46 3
17 47 5
17 48 4
17 49 1
17 50 4
17 51 5
17 52 5
17 53 4
17 54 4
17 55 4
17 56 4
17 57 1
17 58 1
17 59 2
17 60 3
17 61 3
17 62 1
17 63 5
17 64 1
17 65 1
17 66 5
17 67 4
17 68 4
17 69 5
17 70 2
17 71 4
17 72 4
17 73 3
17 74 4
17 75 1
17 76 3
17 77 4
17 78 1
17 79 4
17 80 4
17 81 5
17 82 1
17 83 2
17 84 3
17 85 4
17 86 3
17 87 1
17 88 5
17 89 5
17 90 4
17 91 1
17 92 1
17 93 2
17 94 1
17 95 3
17 96 2
17 97 5
17 98 5
17 99 5
17 100 3
18 19 5
18 20 4
18 21 5
18 22 5
18 23 4
18 24 1
18 25 4
18 26 4
18 27 1
18 28 1
18 29 3
18 30 3
18 31 5
18 32 1
18 33 5
18 34 5
18 35 3
18 36 4
18 37 5
18 38 2
18 39 1
18 40 1
18 41 4
18 42 1
18 43 5
18 44 1
18 45 4
18 46 1
18 47 2
18 48 4
18 49 5
18 50 3
18 51 2
18 52 3
18 53 4
18 54 2
18 55 3
18 56 1
18 57 1
18 58 2
18 59 1
18 60 4
18 61 3
18 62 3
18 63 2
18 64 3
18 65 5
18 66 1
18 67 1
18 68 5
18 69 5
18 70 3
18 71 4
18 72 3
18 73 4
18 74 3
18 75 4
18 76 1
18 77 5
18 78 4
18 79 5
18 80 5
18 81 5
18 82 4
18 83 4
18 84 5
18 85 3
18 86 4
18 87 2
18 88 3
18 89 5
18 90 2
18 91 5
18 92 2
18 93 1
18 94 4
18 95 5
18 96 3
18 97 2
18 98 1
18 99 5
18 100 5
19 20 5
19 21 5
19 22 2
19 23 1
19 24 5
19 25 1
19 26 4
19 27 2
19 28 4
19 29 1
19 30 4
19 31 4
19 32 4
19 33 1
19 34 5
19 35 5
19 36 1
19 37 1
19 38 3
19 39 2
19 40 2
19 41 5
19 42 5
19 43 1
19 44 1
19 45 1
19 46 2
19 47 5
19 48 3
19 49 5
19 50 4
19 51 4
19 52 4
19 53 3
19 54 1
19 55 4
19 56 1
19 57 2
19 58 5
19 59 4
19 60 2
19 61 5
19 62 2
19 63 1
19 64 4
19 65 1
19 66 2
19 67 2
19 68 1
19 69 5
19 70 5
19 71 5
19 72 3
19 73 2
19 74 3
19 75 5
19 76 5
19 77 3
19 78 4
19 79 5
19 80 5
19 81 4
19 82 3
19 83 3
19 84 1
19 85 3
19 86 4
19 87 3
19 88 4
19 89 3
19 90 4
19 91 3
19 92 4
19 93 1
19 94 5
19 95 4
19 96 2
19 97 3
19 98 4
19 99 2
19 100 4
20 21 2
20 22 1
20 23 5
20 24 4
20 25 3
20 26 4
20 27 2
20 28 2
20 29 5
20 30 4
20 31 4
20 32 4
20 33 4
20 34 4
20 35 1
20 36 1
20 37 2
20 38 5
20 39 1
20 40 4
20 41 4
20 42 4
20 43 3
20 44 1
20 45 4
20 46 5
20 47 5
20 48 5
20 49 3
20 50 1
20 51 2
20 52 2
20 53 1
20 54 3
20 55 4
20 56 4
20 57 5
20 58 4
20 59 5
20 60 5
20 61 4
20 62 5
20 63 2
20 64 2
20 65 1
20 66 5
20 67 2
20 68 3
20 69 2
20 70 1
20 71 2
20 72 4
20 73 1
20 74 5
20 75 3
20 76 4
20 77 2
20 78 5
20 79 3
20 80 4
20 81 2
20 82 2
20 83 3
20 84 5
20 85 5
20 86 4
20 87 5
20 88 3
20 89 1
20 90 2
20 91 2
20 92 1
20 93 5
20 94 3
20 95 1
20 96 1
20 97 5
20 98 4
20 99 5
20 100 2
21 22 2
21 23 2
21 24 5
21 25 3
21 26 3
21 27 2
21 28 3
21 29 4
21 30 2
21 31 5
21 32 1
21 33 3
21 34 4
21 35 4
21 36 4
21 37 3
21 38 5
21 39 3
21 40 1
21 41 2
21 42 5
21 43 4
21 44 5
21 45 5
21 46 3
21 47 1
21 48 4
21 49 1
21 50 5
21 51 4
21 52 1
21 53 4
21 54 1
21 55 2
21 56 2
21 57 4
21 58 5
21 59 4
21 60 3
21 61 3
21 62 5
21 63 1
21 64 4
21 65 5
21 66 2
21 67 4
21 68 3
21 69 3
21 70 2
21 71 2
21 72 3
21 73 3
21 74 5
21 75 2
21 76 1
21 77 3
21 78 3
21 79 1
21 80 2
21 81 3
21 82 1
21 83 5
21 84 5
21 85 3
21 86 3
21 87 2
21 88 5
21 89 1
21 90 5
21 91 2
21 92 5
21 93 2
21 94 1
21 95 4
21 96 5
21 97 1
21 98 5
21 99 3
21 100 4
22 23 4
22 24 4
22 25 3
22 26 3
22 27 5
22 28 3
22 29 2
22 30 2
22 31 5
22 32 3
22 33 1
22 34 5
22 35 3
22 36 2
22 37 5
22 38 3
22 39 4
22 40 5
22 41 3
22 42 2
22 43 5
22 44 3
22 45 4
22 46 4
22 47 2
22 48 3
22 49 1
22 50 5
22 51 2
22 52 1
22 53 4
22 54 2
22 55 2
22 56 5
22 57 4
22 58 5
22 59 2
22 60 1
22 61 1
22 62 1
22 63 5
22 64 3
22 65 1
22 66 1
22 67 2
22 68 4
22 69 5
22 70 3
22 71 3
22 72 2
22 73 4
22 74 5
22 75 1
22 76 3
22 77 3
22 78 1
22 79 1
22 80 4
22 81 4
22 82 1
22 83 2
22 84 2
22 85 1
22 86 2
22 87 1
22 88 1
22 89 5
22 90 5
22 91 4
22 92 2
22 93 4
22 94 3
22 95 3
22 96 1
22 97 4
22 98 2
22 99 5
22 100 4
23 24 1
23 25 4
23 26 5
23 27 4
23 28 3
23 29 5
23 30 4
23 31 4
23 32 5
23 33 3
23 34 4
23 35 3
23 36 3
23 37 1
23 38 4
23 39 1
23 40 3
23 41 2
23 42 4
23 43 4
23 44 1
23 45 2
23 46 5
23 47 5
23 48 2
23 49 5
23 50 2
23 51 4
23 52 5
23 53 3
23 54 1
23 55 5
23 56 1
23 57 5
23 58 1
23 59 3
23 60 3
23 61 5
23 62 5
23 63 5
23 64 2
23 65 1
23 66 4
23 67 3
23 68 1
23 69 1
23 70 2
23 71 1
23 72 5
23 73 1
23 74 1
23 75 3
23 76 5
23 77 4
23 78 2
23 79 1
23 80 1
23 81 2
23 82 1
23 83 1
23 84 2
23 85 3
23 86 2
23 87 4
23 88 2
23 89 5
23 90 5
23 91 4
23 92 3
23 93 5
23 94 3
23 95 3
23 96 1
23 97 3
23 98 4
23 99 2
23 100 4
24 25 4
24 26 4
24 27 2
24 28 3
24 29 5
24 30 3
24 31 3
24 32 2
24 33 4
24 34 3
24 35 1
24 36 2
24 37 3
24 38 1
24 39 2
24 40 5
24 41 5
24 42 4
24 43 5
24 44 4
24 45 2
24 46 3
24 47 5
24 48 2
24 49 2
24 50 4
24 51 2
24 52 5
24 53 5
24 54 2
24 55 2
24 56 5
24 57 4
24 58 5
24 59 1
24 60 3
24 61 5
24 62 2
24 63 2
24 64 5
24 65 2
24 66 3
24 67 2
24 68 4
24 69 1
24 70 1
24 71 5
24 72 5
24 73 5
24 74 3
24 75 5
24 76 1
24 77 4
24 78 1
24 79 4
24 80 5
24 81 5
24 82 2
24 83 3
24 84 4
24 85 5
24 86 4
24 87 3
24 88 2
24 89 4
24 90 5
24 91 1
24 92 5
24 93 1
24 94 4
24 95 5
24 96 5
24 97 2
24 98 3
24 99 2
24 100 3
25 26 3
25 27 5
25 28 5
25 29 2
25 30 1
25 31 2
25 32 1
25 33 3
25 34 2
25 35 3
25 36 4
25 37 3
25 38 3
25 39 3
25 40 3
25 41 4
25 42 2
25 43 1
25 44 1
25 45 3
25 46 1
25 47 3
25 48 4
25 49 3
25 50 3
25 51 3
25 52 5
25 53 2
25 54 2
25 55 3
25 56 1
25 57 1
25 58 3
25 59 5
25 60 2
25 61 1
25 62 5
25 63 1
25 64 3
25 65 1
25 66 2
25 67 4
25 68 5
25 69 5
25 70 4
25 71 4
25 72 4
25 73 1
25 74 2
25 75 1
25 76 1
25 77 5
25 78 2
25 79 4
25 80 1
25 81 3
25 82 2
25 83 1
25 84 5
25 85 5
25 86 4
25 87 1
25 88 4
25 89 3
25 90 2
25 91 1
25 92 4
25 93 4
25 94 1
25 95 2
25 96 2
25 97 3
25 98 3
25 99 1
25 100 3
26 27 5
26 28 2
26 29 4
26 30 1
26 31 4
26 32 2
26 33 1
26 34 1
26 35 1
26 36 3
26 37 5
26 38 1
26 39 5
26 40 2
26 41 3
26 42 4
26 43 4
26 44 2
26 45 4
26 46 3
26 47 2
26 48 4
26 49 2
26 50 3
26 51 3
26 52 3
26 53 4
26 54 2
26 55 2
26 56 4
26 57 5
26 58 1
26 59 5
26 60 1
26 61 3
26 62 4
26 63 5
26 64 2
26 65 4
26 66 4
26 67 3
26 68 2
26 69 3
26 70 1
26 71 3
26 72 2
26 73 1
26 74 3
26 75 4
26 76 3
26 77 2
26 78 2
26 79 5
26 80 4
26 81 1
26 82 3
26 83 2
26 84 4
26 85 1
26 86 2
26 87 5
26 88 2
26 89 5
26 90 2
26 91 2
26 92 5
26 93 5
26 94 1
26 95 2
26 96 3
26 97 3
26 98 5
26 99 4
26 100 4
27 28 2
27 29 2
27 30 1
27 31 5
27 32 3
27 33 1
27 34 3
27 35 2
27 36 3
27 37 5
27 38 4
27 39 3
27 40 3
27 41 5
27 42 3
27 43 2
27 44 4
27 45 5
27 46 1
27 47 1
27 48 4
27 49 3
27 50 5
27 51 3
27 52 3
27 53 4
27 54 5
27 55 3
27 56 1
27 57 1
27 58 5
27 59 3
27 60 3
27 61 2
27 62 5
27 63 4
27 64 5
27 65 4
27 66 5
27 67 1
27 68 5
27 69 4
27 70 3
27 71 2
27 72 2
27 73 2
27 74 3
27 75 1
27 76 4
27 77 1
27 78 2
27 79 4
27 80 2
27 81 1
27 82 3
27 83 4
27 84 2
27 85 5
27 86 5
27 87 2
27 88 3
27 89 1
27 90 4
27 91 1
27 92 2
27 93 4
27 94 1
27 95 5
27 96 2
27 97 2
27 98 2
27 99 5
27 100 2
28 29 4
28 30 4
28 31 3
28 32 2
28 33 4
28 34 1
28 35 2
28 36 4
28 37 5
28 38 2
28 39 3
28 40 2
28 41 2
28 42 3
28 43 5
28 44 1
28 45 5
28 46 4
28 47 1
28 48 1
28 49 2
28 50 2
28 51 4
28 52 2
28 53 1
28 54 4
28 55 2
28 56 2
28 57 3
28 58 4
28 59 3
28 60 3
28 61 1
28 62 4
28 63 2
28 64 1
28 65 1
28 66 4
28 67 5
28 68 2
28 69 2
28 70 4
28 71 1
28 72 2
28 73 5
28 74 3
28 75 1
28 76 5
28 77 2
28 78 4
28 79 4
28 80 3
28 81 1
28 82 3
28 83 4
28 84 1
28 85 4
28 86 2
28 87 3
28 88 3
28 89 2
28 90 3
28 91 3
28 92 4
28 93 3
28 94 3
28 95 3
28 96 2
28 97 2
28 98 3
28 99 3
28 100 4
29 30 5
29 31 5
29 32 4
29 33 4
29 34 2
29 35 4
29 36 4
29 37 1
29 38 5
29 39 1
29 40 3
29 41 1
29 42 4
29 43 4
29 44 3
29 45 4
29 46 1
29 47 2
29 48 4
29 49 5
29 50 2
29 51 2
29 52 5
29 53 4
29 54 5
29 55 4
29 56 2
29 57 4
29 58 3
29 59 1
29 60 1
29 61 2
29 62 2
29 63 1
29 64 2
29 65 5
29 66 4
29 67 1
29 68 4
29 69 2
29 70 5
29 71 4
29 72 4
29 73 4
29 74 5
29 75 1
29 76 4
29 77 3
29 78 5
29 79 2
29 80 1
29 81 2
29 82 1
29 83 1
29 84 1
29 85 3
29 86 1
29 87 1
29 88 3
29 89 2
29 90 4
29 91 4
29 92 4
29 93 2
29 94 4
29 95 5
29 96 3
29 97 5
29 98 2
29 99 2
29 100 1
30 31 5
30 32 3
30 33 4
30 34 4
30 35 5
30 36 5
30 37 5
30 38 4
30 39 4
30 40 2
30 41 1
30 42 4
30 43 5
30 44 4
30 45 3
30 46 4
30 47 1
30 48 2
30 49 5
30 50 2
30 51 3
30 52 2
30 53 2
30 54 5
30 55 5
30 56 3
30 57 3
30 58 4
30 59 2
30 60 5
30 61 2
30 62 5
30 63 5
30 64 5
30 65 2
30 66 4
30 67 1
30 68 2
30 69 3
30 70 3
30 71 5
30 72 4
30 73 3
30 74 1
30 75 5
30 76 5
30 77 5
30 78 1
30 79 4
30 80 4
30 81 3
30 82 2
30 83 1
30 84 3
30 85 4
30 86 2
30 87 2
30 88 1
30 89 2
30 90 2
30 91 1
30 92 1
30 93 1
30 94 5
30 95 4
30 96 4
30 97 2
30 98 4
30 99 5
30 100 1
31 32 4
31 33 5
31 34 2
31 35 3
31 36 4
31 37 5
31 38 3
31 39 2
31 40 2
31 41 4
31 42 1
31 43 1
31 44 4
31 45 3
31 46 3
31 47 3
31 48 2
31 49 5
31 50 2
31 51 3
31 52 5
31 53 3
31 54 5
31 55 3
31 56 3
31 57 5
31 58 2
31 59 3
31 60 3
31 61 5
31 62 1
31 63 1
31 64 3
31 65 2
31 66 1
31 67 3
31 68 5
31 69 4
31 70 1
31 71 4
31 72 5
31 73 3
31 74 2
31 75 1
31 76 4
31 77 2
31 78 1
31 79 4
31 80 2
31 81 3
31 82 4
31 83 3
31 84 3
31 85 2
31 86 1
31 87 1
31 88 5
31 89 2
31 90 3
31 91 2
31 92 3
31 93 4
31 94 3
31 95 1
31 96 2
31 97 2
31 98 2
31 99 5
31 100 5
32 33 4
32 34 4
32 35 5
32 36 4
32 37 3
32 38 5
32 39 1
32 40 4
32 41 3
32 42 2
32 43 2
32 44 5
32 45 1
32 46 5
32 47 4
32 48 5
32 49 4
32 50 5
32 51 5
32 52 2
32 53 3
32 54 1
32 55 4
32 56 5
32 57 4
32 58 5
32 59 3
32 60 1
32 61 4
32 62 4
32 63 2
32 64 5
32 65 5
32 66 3
32 67 5
32 68 2
32 69 2
32 70 4
32 71 5
32 72 1
32 73 4
32 74 3
32 75 1
32 76 2
32 77 5
32 78 3
32 79 4
32 80 1
32 81 4
32 82 5
32 83 4
32 84 1
32 85 2
32 86 1
32 87 3
32 88 5
32 89 5
32 90 2
32 91 4
32 92 2
32 93 5
32 94 5
32 95 2
32 96 1
32 97 4
32 98 5
32 99 2
32 100 1
33 34 3
33 35 5
33 36 2
33 37 2
33 38 2
33 39 5
33 40 1
33 41 1
33 42 4
33 43 1
33 44 4
33 45 3
33 46 3
33 47 2
33 48 2
33 49 3
33 50 3
33 51 3
33 52 2
33 53 5
33 54 5
33 55 2
33 56 1
33 57 1
33 58 1
33 59 2
33 60 1
33 61 4
33 62 5
33 63 2
33 64 4
33 65 2
33 66 1
33 67 1
33 68 3
33 69 5
33 70 5
33 71 3
33 72 5
33 73 3
33 74 3
33 75 5
33 76 4
33 77 3
33 78 4
33 79 1
33 80 4
33 81 5
33 82 1
33 83 4
33 84 5
33 85 4
33 86 3
33 87 5
33 88 3
33 89 2
33 90 2
33 91 2
33 92 2
33 93 4
33 94 1
33 95 5
33 96 1
33 97 3
33 98 1
33 99 1
33 100 2
34 35 4
34 36 5
34 37 5
34 38 4
34 39 3
34 40 2
34 41 1
34 42 3
34 43 1
34 44 3
34 45 2
34 46 3
34 47 1
34 48 4
34 49 2
34 50 1
34 51 3
34 52 3
34 53 2
34 54 5
34 55 1
34 56 3
34 57 5
34 58 3
34 59 3
34 60 4
34 61 3
34 62 4
34 63 3
34 64 4
34 65 1
34 66 2
34 67 2
34 68 1
34 69 1
34 70 4
34 71 1
34 72 5
34 73 4
34 74 3
34 75 4
34 76 1
34 77 1
34 78 4
34 79 1
34 80 3
34 81 1
34 82 3
34 83 3
34 84 5
34 85 3
34 86 5
34 87 4
34 88 2
34 89 5
34 90 3
34 91 1
34 92 3
34 93 5
34 94 1
34 95 5
34 96 5
34 97 2
34 98 1
34 99 4
34 100 5
35 36 2
35 37 3
35 38 3
35 39 1
35 40 3
35 41 2
35 42 2
35 43 4
35 44 4
35 45 4
35 46 2
35 47 4
35 48 5
35 49 1
35 50 5
35 51 4
35 52 4
35 53 1
35 54 4
35 55 5
35 56 1
35 57 2
35 58 2
35 59 1
35 60 5
35 61 3
35 62 4
35 63 5
35 64 1
35 65 3
35 66 4
35 67 3
35 68 2
35 69 2
35 70 2
35 71 4
35 72 2
35 73 2
35 74 5
35 75 3
35 76 1
35 77 1
35 78 5
35 79 3
35 80 5
35 81 3
35 82 5
35 83 1
35 84 5
35 85 2
35 86 5
35 87 4
35 88 2
35 89 1
35 90 4
35 91 5
35 92 1
35 93 3
35 94 1
35 95 3
35 96 3
35 97 5
35 98 2
35 99 3
35 100 3
36 37 2
36 38 5
36 39 1
36 40 2
36 41 1
36 42 4
36 43 5
36 44 2
36 45 4
36 46 5
36 47 5
36 48 5
36 49 3
36 50 4
36 51 3
36 52 3
36 53 2
36 54 3
36 55 2
36 56 3
36 57 1
36 58 3
36 59 3
36 60 2
36 61 4
36 62 2
36 63 1
36 64 5
36 65 1
36 66 5
36 67 2
36 68 5
36 69 4
36 70 3
36 71 2
36 72 4
36 73 1
36 74 4
36 75 3
36 76 5
36 77 1
36 78 5
36 79 2
36 80 3
36 81 4
36 82 5
36 83 2
36 84 2
36 85 1
36 86 1
36 87 2
36 88 3
36 89 4
36 90 5
36 91 3
36 92 4
36 93 3
36 94 1
36 95 4
36 96 1
36 97 4
36 98 3
36 99 3
36 100 2
37 38 3
37 39 2
37 40 5
37 41 1
37 42 2
37 43 3
37 44 4
37 45 3
37 46 3
37 47 1
37 48 1
37 49 3
37 50 2
37 51 5
37 52 5
37 53 2
37 54 3
37 55 4
37 56 3
37 57 4
37 58 5
37 59 3
37 60 5
37 61 5
37 62 5
37 63 2
37 64 5
37 65 5
37 66 1
37 67 5
37 68 4
37 69 4
37 70 4
37 71 5
37 72 3
37 73 4
37 74 2
37 75 3
37 76 4
37 77 4
37 78 3
37 79 4
37 80 3
37 81 5
37 82 1
37 83 5
37 84 2
37 85 5
37 86 5
37 87 2
37 88 3
37 89 2
37 90 5
37 91 2
37 92 5
37 93 5
37 94 2
37 95 1
37 96 3
37 97 4
37 98 4
37 99 3
37 100 1
38 39 4
38 40 2
38 41 4
38 42 4
38 43 1
38 44 1
38 45 2
38 46 4
38 47 2
38 48 5
38 49 3
38 50 3
38 51 3
38 52 3
38 53 3
38 54 2
38 55 4
38 56 1
38 57 4
38 58 5
38 59 4
38 60 5
38 61 1
38 62 3
38 63 3
38 64 5
38 65 1
38 66 1
38 67 2
38 68 3
38 69 5
38 70 1
38 71 3
38 72 1
38 73 3
38 74 1
38 75 3
38 76 1
38 77 5
38 78 5
38 79 4
38 80 1
38 81 2
38 82 1
38 83 4
38 84 3
38 85 2
38 86 1
38 87 3
38 88 1
38 89 3
38 90 2
38 91 5
38 92 5
38 93 3
38 94 4
38 95 4
38 96 5
38 97 4
38 98 4
38 99 3
38 100 5
39 40 5
39 41 4
39 42 1
39 43 3
39 44 3
39 45 4
39 46 2
39 47 4
39 48 1
39 49 1
39 50 1
39 51 5
39 52 1
39 53 3
39 54 3
39 55 5
39 56 2
39 57 4
39 58 1
39 59 1
39 60 2
39 61 4
39 62 4
39 63 1
39 64 4
39 65 3
39 66 3
39 67 4
39 68 4
39 69 1
39 70 5
39 71 4
39 72 1
39 73 5
39 74 5
39 75 5
39 76 1
39 77 1
39 78 1
39 79 1
39 80 1
39 81 3
39 82 2
39 83 2
39 84 4
39 85 4
39 86 3
39 87 5
39 88 3
39 89 3
39 90 1
39 91 1
39 92 1
39 93 4
39 94 4
39 95 5
39 96 4
39 97 4
39 98 1
39 99 4
39 100 3
40 41 5
40 42 4
40 43 4
40 44 5
40 45 3
40 46 3
40 47 4
40 48 5
40 49 5
40 50 4
40 51 5
40 52 4
40 53 5
40 54 4
40 55 1
40 56 1
40 57 5
40 58 1
40 59 2
40 60 4
40 61 4
40 62 1
40 63 1
40 64 1
40 65 1
40 66 1
40 67 3
40 68 3
40 69 5
40 70 2
40 71 1
40 72 4
40 73 5
40 74 4
40 75 3
40 76 3
40 77 1
40 78 3
40 79 3
40 80 5
40 81 5
40 82 1
40 83 2
40 84 1
40 85 5
40 86 1
40 87 5
40 88 3
40 89 2
40 90 5
40 91 4
40 92 1
40 93 1
40 94 3
40 95 3
40 96 5
40 97 1
40 98 3
40 99 2
40 100 1
41 42 5
41 43 3
41 44 5
41 45 2
41 46 5
41 47 2
41 48 2
41 49 4
41 50 4
41 51 2
41 52 2
41 53 2
41 54 5
41 55 1
41 56 4
41 57 1
41 58 5
41 59 4
41 60 3
41 61 3
41 62 2
41 63 4
41 64 3
41 65 1
41 66 3
41 67 5
41 68 5
41 69 2
41 70 3
41 71 3
41 72 1
41 73 1
41 74 3
41 75 5
41 76 1
41 77 5
41 78 1
41 79 1
41 80 3
41 81 2
41 82 3
41 83 2
41 84 5
41 85 1
41 86 4
41 87 1
41 88 2
41 89 5
41 90 5
41 91 3
41 92 2
41 93 3
41 94 5
41 95 1
41 96 2
41 97 1
41 98 4
41 99 2
41 100 5
42 43 2
42 44 1
42 45 2
42 46 5
42 47 5
42 48 5
42 49 5
42 50 1
42 51 4
42 52 5
42 53 5
42 54 3
42 55 5
42 56 2
42 57 2
42 58 3
42 59 1
42 60 3
42 61 4
42 62 4
42 63 1
42 64 1
42 65 2
42 66 1
42 67 1
42 68 2
42 69 4
42 70 4
42 71 2
42 72 5
42 73 3
42 74 4
42 75 2
42 76 5
42 77 3
42 78 2
42 79 4
42 80 3
42 81 2
42 82 2
42 83 5
42 84 2
42 85 2
42 86 3
42 87 1
42 88 3
42 89 3
42 90 1
42 91 3
42 92 5
42 93 2
42 94 4
42 95 1
42 96 2
42 97 4
42 98 1
42 99 5
42 100 1
43 44 5
43 45 2
43 46 5
43 47 4
43 48 1
43 49 3
43 50 5
43 51 1
43 52 1
43 53 1
43 54 5
43 55 2
43 56 5
43 57 1
43 58 3
43 59 5
43 60 4
43 61 5
43 62 2
43 63 1
43 64 1
43 65 1
43 66 2
43 67 2
43 68 2
43 69 4
43 70 1
43 71 2
43 72 4
43 73 3
43 74 1
43 75 1
43 76 4
43 77 3
43 78 5
43 79 2
43 80 4
43 81 2
43 82 1
43 83 3
43 84 2
43 85 2
43 86 2
43 87 4
43 88 4
43 89 3
43 90 5
43 91 3
43 92 2
43 93 3
43 94 2
43 95 3
43 96 1
43 97 4
43 98 5
43 99 2
43 100 2
44 45 2
44 46 1
44 47 4
44 48 2
44 49 3
44 50 4
44 51 2
44 52 5
44 53 2
44 54 2
44 55 4
44 56 2
44 57 1
44 58 1
44 59 5
44 60 2
44 61 4
44 62 1
44 63 5
44 64 5
44 65 2
44 66 1
44 67 5
44 68 4
44 69 4
44 70 3
44 71 5
44 72 4
44 73 3
44 74 3
44 75 3
44 76 3
44 77 2
44 78 1
44 79 4
44 80 5
44 81 1
44 82 5
44 83 5
44 84 2
44 85 3
44 86 5
44 87 1
44 88 5
44 89 1
44 90 5
44 91 3
44 92 2
44 93 2
44 94 2
44 95 5
44 96 1
44 97 5
44 98 3
44 99 5
44 100 3
45 46 1
45 47 4
45 48 5
45 49 3
45 50 5
45 51 2
45 52 4
45 53 4
45 54 5
45 55 5
45 56 2
45 57 2
45 58 3
45 59 5
45 60 4
45 61 4
45 62 5
45 63 4
45 64 4
45 65 4
45 66 3
45 67 5
45 68 2
45 69 3
45 70 3
45 71 3
45 72 3
45 73 1
45 74 2
45 75 5
45 76 4
45 77 5
45 78 2
45 79 5
45 80 3
45 81 1
45 82 3
45 83 4
45 84 3
45 85 3
45 86 4
45 87 4
45 88 1
45 89 2
45 90 1
45 91 3
45 92 4
45 93 3
45 94 1
45 95 5
45 96 4
45 97 3
45 98 5
45 99 4
45 100 2
46 47 5
46 48 2
46 49 5
46 50 3
46 51 4
46 52 1
46 53 3
46 54 2
46 55 4
46 56 5
46 57 2
46 58 1
46 59 1
46 60 2
46 61 2
46 62 1
46 63 3
46 64 1
46 65 3
46 66 1
46 67 1
46 68 3
46 69 1
46 70 4
46 71 2
46 72 3
46 73 1
46 74 4
46 75 2
46 76 3
46 77 2
46 78 2
46 79 3
46 80 5
46 81 2
46 82 5
46 83 3
46 84 2
46 85 3
46 86 5
46 87 2
46 88 2
46 89 5
46 90 1
46 91 1
46 92 2
46 93 5
46 94 1
46 95 2
46 96 1
46 97 1
46 98 1
46 99 3
46 100 2
47 48 4
47 49 1
47 50 3
47 51 2
47 52 4
47 53 5
47 54 3
47 55 3
47 56 5
47 57 4
47 58 2
47 59 4
47 60 5
47 61 3
47 62 3
47 63 3
47 64 1
47 65 5
47 66 2
47 67 5
47 68 2
47 69 4
47 70 5
47 71 3
47 72 4
47 73 2
47 74 3
47 75 3
47 76 3
47 77 5
47 78 2
47 79 2
47 80 4
47 81 4
47 82 3
47 83 3
47 84 5
47 85 4
47 86 5
47 87 4
47 88 5
47 89 3
47 90 1
47 91 3
47 92 5
47 93 3
47 94 2
47 95 2
47 96 5
47 97 3
47 98 1
47 99 3
47 100 2
48 49 5
48 50 4
48 51 2
48 52 2
48 53 5
48 54 2
48 55 5
48 56 2
48 57 3
48 58 1
48 59 5
48 60 4
48 61 2
48 62 1
48 63 4
48 64 1
48 65 2
48 66 1
48 67 2
48 68 1
48 69 2
48 70 1
48 71 3
48 72 1
48 73 3
48 74 5
48 75 1
48 76 5
48 77 1
48 78 4
48 79 3
48 80 1
48 81 5
48 82 4
48 83 2
48 84 3
48 85 4
48 86 2
48 87 5
48 88 3
48 89 4
48 90 3
48 91 4
48 92 4
48 93 5
48 94 1
48 95 2
48 96 1
48 97 5
48 98 4
48 99 2
48 100 3
49 50 3
49 51 5
49 52 4
49 53 1
49 54 3
49 55 2
49 56 2
49 57 5
49 58 4
49 59 1
49 60 2
49 61 3
49 62 5
49 63 5
49 64 4
49 65 1
49 66 4
49 67 5
49 68 1
49 69 1
49 70 5
49 71 4
49 72 2
49 73 1
49 74 2
49 75 4
49 76 3
49 77 3
49 78 1
49 79 3
49 80 5
49 81 2
49 82 1
49 83 1
49 84 5
49 85 2
49 86 3
49 87 2
49 88 3
49 89 5
49 90 5
49 91 2
49 92 2
49 93 5
49 94 3
49 95 1
49 96 5
49 97 3
49 98 3
49 99 2
49 100 3
50 51 2
50 52 4
50 53 2
50 54 3
50 55 4
50 56 4
50 57 2
50 58 4
50 59 3
50 60 5
50 61 3
50 62 5
50 63 3
50 64 1
50 65 1
50 66 3
50 67 1
50 68 5
50 69 1
50 70 4
50 71 3
50 72 5
50 73 5
50 74 4
50 75 4
50 76 5
50 77 5
50 78 3
50 79 5
50 80 1
50 81 2
50 82 3
50 83 2
50 84 5
50 85 3
50 86 4
50 87 3
50 88 3
50 89 5
50 90 1
50 91 4
50 92 5
50 93 3
50 94 4
50 95 2
50 96 5
50 97 2
50 98 1
50 99 1
50 100 5
51 52 5
51 53 4
51 54 3
51 55 1
51 56 5
51 57 1
51 58 5
51 59 4
51 60 3
51 61 2
51 62 3
51 63 4
51 64 1
51 65 4
51 66 2
51 67 2
51 68 4
51 69 1
51 70 3
51 71 4
51 72 1
51 73 1
51 74 3
51 75 5
51 76 1
51 77 5
51 78 5
51 79 5
51 80 4
51 81 2
51 82 5
51 83 4
51 84 1
51 85 2
51 86 5
51 87 4
51 88 5
51 89 4
51 90 2
51 91 3
51 92 1
51 93 3
51 94 3
51 95 1
51 96 2
51 97 4
51 98 4
51 99 4
51 100 1
52 53 2
52 54 3
52 55 1
52 56 5
52 57 5
52 58 3
52 59 4
52 60 3
52 61 4
52 62 2
52 63 1
52 64 2
52 65 3
52 66 1
52 67 1
52 68 1
52 69 1
52 70 2
52 71 2
52 72 1
52 73 5
52 74 4
52 75 2
52 76 1
52 77 2
52 78 2
52 79 3
52 80 1
52 81 1
52 82 1
52 83 2
52 84 3
52 85 2
52 86 3
52 87 2
52 88 3
52 89 1
52 90 2
52 91 2
52 92 5
52 93 4
52 94 3
52 95 4
52 96 2
52 97 3
52 98 2
52 99 5
52 100 4
53 54 1
53 55 2
53 56 1
53 57 3
53 58 5
53 59 5
53 60 2
53 61 3
53 62 1
53 63 3
53 64 4
53 65 1
53 66 1
53 67 4
53 68 1
53 69 3
53 70 2
53 71 3
53 72 4
53 73 1
53 74 5
53 75 1
53 76 3
53 77 3
53 78 4
53 79 5
53 80 3
53 81 3
53 82 4
53 83 5
53 84 3
53 85 5
53 86 5
53 87 1
53 88 1
53 89 2
53 90 5
53 91 1
53 92 4
53 93 4
53 94 3
53 95 4
53 96 4
53 97 2
53 98 2
53 99 4
53 100 4
54 55 1
54 56 5
54 57 2
54 58 5
54 59 4
54 60 3
54 61 4
54 62 1
54 63 1
54 64 5
54 65 1
54 66 3
54 67 5
54 68 2
54 69 1
54 70 4
54 71 3
54 72 2
54 73 1
54 74 5
54 75 5
54 76 2
54 77 1
54 78 4
54 79 1
54 80 1
54 81 4
54 82 4
54 83 1
54 84 1
54 85 4
54 86 5
54 87 2
54 88 2
54 89 3
54 90 4
54 91 1
54 92 3
54 93 2
54 94 4
54 95 2
54 96 5
54 97 1
54 98 2
54 99 5
54 100 4
55 56 3
55 57 5
55 58 2
55 59 2
55 60 5
55 61 4
55 62 4
55 63 5
55 64 3
55 65 1
55 66 2
55 67 5
55 68 5
55 69 4
55 70 2
55 71 5
55 72 2
55 73 2
55 74 5
55 75 5
55 76 1
55 77 1
55 78 4
55 79 3
55 80 1
55 81 5
55 82 2
55 83 4
55 84 2
55 85 2
55 86 1
55 87 5
55 88 3
55 89 3
55 90 5
55 91 3
55 92 1
55 93 2
55 94 2
55 95 3
55 96 5
55 97 1
55 98 4
55 99 1
55 100 5
56 57 2
56 58 3
56 59 4
56 60 2
56 61 5
56 62 3
56 63 2
56 64 3
56 65 5
56 66 4
56 67 3
56 68 2
56 69 1
56 70 5
56 71 1
56 72 2
56 73 2
56 74 5
56 75 2
56 76 3
56 77 3
56 78 2
56 79 2
56 80 4
56 81 3
56 82 5
56 83 5
56 84 1
56 85 2
56 86 1
56 87 3
56 88 1
56 89 5
56 90 5
56 91 1
56 92 1
56 93 1
56 94 5
56 95 1
56 96 1
56 97 4
56 98 1
56 99 4
56 100 2
57 58 3
57 59 5
57 60 1
57 61 1
57 62 4
57 63 3
57 64 3
57 65 5
57 66 4
57 67 3
57 68 5
57 69 1
57 70 5
57 71 5
57 72 5
57 73 5
57 74 5
57 75 3
57 76 5
57 77 2
57 78 1
57 79 1
57 80 2
57 81 5
57 82 2
57 83 4
57 84 3
57 85 3
57 86 1
57 87 4
57 88 5
57 89 2
57 90 1
57 91 2
57 92 2
57 93 1
57 94 5
57 95 5
57 96 5
57 97 3
57 98 3
57 99 1
57 100 3
58 59 2
58 60 1
58 61 5
58 62 3
58 63 3
58 64 3
58 65 4
58 66 1
58 67 2
58 68 4
58 69 2
58 70 4
58 71 4
58 72 2
58 73 5
58 74 1
58 75 1
58 76 5
58 77 1
58 78 2
58 79 2
58 80 1
58 81 4
58 82 5
58 83 3
58 84 1
58 85 2
58 86 1
58 87 3
58 88 3
58 89 1
58 90 5
58 91 4
58 92 4
58 93 2
58 94 4
58 95 1
58 96 3
58 97 5
58 98 2
58 99 4
58 100 5
59 60 2
59 61 4
59 62 3
59 63 5
59 64 5
59 65 5
59 66 3
59 67 4
59 68 4
59 69 3
59 70 2
59 71 4
59 72 1
59 73 1
59 74 4
59 75 3
59 76 4
59 77 4
59 78 2
59 79 3
59 80 4
59 81 4
59 82 2
59 83 5
59 84 5
59 85 1
59 86 3
59 87 4
59 88 4
59 89 1
59 90 3
59 91 2
59 92 5
59 93 4
59 94 1
59 95 2
59 96 4
59 97 4
59 98 3
59 99 4
59 100 4
60 61 5
60 62 1
60 63 2
60 64 4
60 65 1
60 66 2
60 67 5
60 68 4
60 69 2
60 70 5
60 71 2
60 72 4
60 73 2
60 74 5
60 75 3
60 76 2
60 77 1
60 78 1
60 79 5
60 80 5
60 81 2
60 82 5
60 83 3
60 84 1
60 85 1
60 86 3
60 87 2
60 88 4
60 89 1
60 90 1
60 91 3
60 92 1
60 93 5
60 94 3
60 95 4
60 96 3
60 97 3
60 98 3
60 99 2
60 100 4
61 62 5
61 63 4
61 64 3
61 65 4
61 66 4
61 67 4
61 68 5
61 69 1
61 70 4
61 71 5
61 72 5
61 73 4
61 74 2
61 75 4
61 76 5
61 77 2
61 78 1
61 79 4
61 80 3
61 81 2
61 82 2
61 83 4
61 84 2
61 85 5
61 86 1
61 87 4
61 88 3
61 89 5
61 90 1
61 91 2
61 92 3
61 93 2
61 94 3
61 95 3
61 96 1
61 97 1
61 98 3
61 99 2
61 100 1
62 63 5
62 64 4
62 65 4
62 66 4
62 67 2
62 68 4
62 69 3
62 70 4
62 71 1
62 72 3
62 73 1
62 74 3
62 75 3
62 76 1
62 77 4
62 78 2
62 79 5
62 80 2
62 81 5
62 82 5
62 83 4
62 84 5
62 85 1
62 86 2
62 87 3
62 88 3
62 89 1
62 90 5
62 91 1
62 92 5
62 93 4
62 94 5
62 95 2
62 96 2
62 97 5
62 98 3
62 99 5
62 100 4
63 64 1
63 65 5
63 66 5
63 67 1
63 68 1
63 69 1
63 70 1
63 71 1
63 72 1
63 73 5
63 74 5
63 75 5
63 76 5
63 77 2
63 78 3
63 79 1
63 80 2
63 81 2
63 82 3
63 83 1
63 84 3
63 85 5
63 86 5
63 87 1
63 88 5
63 89 4
63 90 5
63 91 1
63 92 4
63 93 5
63 94 1
63 95 5
63 96 1
63 97 4
63 98 5
63 99 1
63 100 5
64 65 2
64 66 5
64 67 5
64 68 3
64 69 2
64 70 5
64 71 4
64 72 5
64 73 2
64 74 4
64 75 3
64 76 2
64 77 1
64 78 3
64 79 4
64 80 2
64 81 5
64 82 5
64 83 3
64 84 2
64 85 4
64 86 3
64 87 4
64 88 5
64 89 5
64 90 3
64 91 4
64 92 2
64 93 1
64 94 1
64 95 4
64 96 5
64 97 5
64 98 4
64 99 5
64 100 1
65 66 3
65 67 2
65 68 2
65 69 5
65 70 3
65 71 3
65 72 1
65 73 4
65 74 2
65 75 2
65 76 3
65 77 1
65 78 5
65 79 3
65 80 3
65 81 1
65 82 5
65 83 3
65 84 5
65 85 2
65 86 2
65 87 4
65 88 3
65 89 1
65 90 4
65 91 4
65 92 2
65 93 2
65 94 5
65 95 2
65 96 5
65 97 5
65 98 3
65 99 2
65 100 2
66 67 5
66 68 4
66 69 3
66 70 4
66 71 5
66 72 4
66 73 4
66 74 3
66 75 4
66 76 3
66 77 2
66 78 2
66 79 5
66 80 3
66 81 3
66 82 4
66 83 1
66 84 4
66 85 5
66 86 4
66 87 2
66 88 5
66 89 3
66 90 4
66 91 1
66 92 2
66 93 4
66 94 2
66 95 3
66 96 3
66 97 5
66 98 1
66 99 2
66 100 4
67 68 5
67 69 2
67 70 5
67 71 1
67 72 1
67 73 4
67 74 5
67 75 1
67 76 2
67 77 1
67 78 1
67 79 3
67 80 2
67 81 1
67 82 3
67 83 1
67 84 4
67 85 4
67 86 1
67 87 1
67 88 2
67 89 1
67 90 3
67 91 3
67 92 1
67 93 5
67 94 2
67 95 4
67 96 5
67 97 1
67 98 3
67 99 1
67 100 4
68 69 5
68 70 3
68 71 3
68 72 5
68 73 3
68 74 2
68 75 4
68 76 3
68 77 3
68 78 3
68 79 3
68 80 2
68 81 2
68 82 3
68 83 5
68 84 3
68 85 2
68 86 5
68 87 3
68 88 1
68 89 3
68 90 4
68 91 3
68 92 4
68 93 1
68 94 2
68 95 2
68 96 1
68 97 5
68 98 3
68 99 2
68 100 1
69 70 3
69 71 5
69 72 5
69 73 4
69 74 3
69 75 5
69 76 4
69 77 2
69 78 4
69 79 4
69 80 1
69 81 1
69 82 1
69 83 3
69 84 3
69 85 2
69 86 4
69 87 2
69 88 1
69 89 2
69 90 4
69 91 1
69 92 3
69 93 4
69 94 5
69 95 4
69 96 3
69 97 3
69 98 3
69 99 2
69 100 3
70 71 3
70 72 4
70 73 1
70 74 5
70 75 1
70 76 2
70 77 3
70 78 3
70 79 4
70 80 2
70 81 1
70 82 1
70 83 2
70 84 5
70 85 2
70 86 5
70 87 5
70 88 3
70 89 2
70 90 5
70 91 1
70 92 4
70 93 4
70 94 3
70 95 1
70 96 4
70 97 3
70 98 5
70 99 3
70 100 1
71 72 2
71 73 2
71 74 2
71 75 1
71 76 5
71 77 2
71 78 2
71 79 5
71 80 2
71 81 2
71 82 5
71 83 4
71 84 2
71 85 4
71 86 3
71 87 3
71 88 4
71 89 5
71 90 1
71 91 2
71 92 5
71 93 5
71 94 3
71 95 1
71 96 2
71 97 1
71 98 5
71 99 2
71 100 1
72 73 1
72 74 1
72 75 3
72 76 1
72 77 5
72 78 3
72 79 3
72 80 1
72 81 3
72 82 3
72 83 5
72 84 1
72 85 1
72 86 1
72 87 4
72 88 1
72 89 1
72 90 4
72 91 3
72 92 1
72 93 1
72 94 5
72 95 1
72 96 5
72 97 4
72 98 1
72 99 2
72 100 1
73 74 2
73 75 2
73 76 4
73 77 3
73 78 2
73 79 1
73 80 1
73 81 2
73 82 3
73 83 2
73 84 2
73 85 5
73 86 5
73 87 4
73 88 1
73 89 4
73 90 1
73 91 2
73 92 1
73 93 3
73 94 2
73 95 1
73 96 1
73 97 2
73 98 1
73 99 1
73 100 3
74 75 1
74 76 2
74 77 3
74 78 3
74 79 4
74 80 5
74 81 4
74 82 3
74 83 2
74 84 1
74 85 5
74 86 5
74 87 5
74 88 3
74 89 2
74 90 3
74 91 3
74 92 2
74 93 5
74 94 4
74 95 3
74 96 1
74 97 3
74 98 1
74 99 1
74 100 2
75 76 4
75 77 2
75 78 4
75 79 2
75 80 5
75 81 1
75 82 3
75 83 5
75 84 1
75 85 4
75 86 3
75 87 2
75 88 2
75 89 4
75 90 1
75 91 1
75 92 1
75 93 5
75 94 1
75 95 4
75 96 1
75 97 2
75 98 2
75 99 5
75 100 3
76 77 1
76 78 4
76 79 5
76 80 2
76 81 1
76 82 5
76 83 1
76 84 2
76 85 4
76 86 4
76 87 4
76 88 1
76 89 2
76 90 2
76 91 1
76 92 4
76 93 1
76 94 3
76 95 5
76 96 3
76 97 4
76 98 5
76 99 2
76 100 2
77 78 5
77 79 1
77 80 1
77 81 3
77 82 5
77 83 5
77 84 2
77 85 4
77 86 2
77 87 1
77 88 5
77 89 3
77 90 3
77 91 5
77 92 2
77 93 5
77 94 2
77 95 1
77 96 5
77 97 2
77 98 3
77 99 1
77 100 1
78 79 5
78 80 1
78 81 1
78 82 2
78 83 3
78 84 2
78 85 2
78 86 2
78 87 1
78 88 5
78 89 2
78 90 4
78 91 1
78 92 2
78 93 4
78 94 1
78 95 4
78 96 1
78 97 2
78 98 4
78 99 2
78 100 5
79 80 4
79 81 1
79 82 2
79 83 2
79 84 2
79 85 2
79 86 5
79 87 2
79 88 4
79 89 1
79 90 5
79 91 3
79 92 5
79 93 1
79 94 5
79 95 3
79 96 5
79 97 1
79 98 5
79 99 5
79 100 3
80 81 1
80 82 5
80 83 5
80 84 1
80 85 2
80 86 4
80 87 4
80 88 4
80 89 4
80 90 5
80 91 4
80 92 5
80 93 5
80 94 4
80 95 1
80 96 1
80 97 3
80 98 3
80 99 4
80 100 4
81 82 2
81 83 4
81 84 1
81 85 3
81 86 4
81 87 2
81 88 5
81 89 4
81 90 3
81 91 1
81 92 1
81 93 3
81 94 2
81 95 3
81 96 5
81 97 1
81 98 1
81 99 3
81 100 1
82 83 1
82 84 2
82 85 1
82 86 2
82 87 5
82 88 3
82 89 1
82 90 5
82 91 3
82 92 3
82 93 3
82 94 2
82 95 1
82 96 3
82 97 1
82 98 3
82 99 4
82 100 2
83 84 4
83 85 2
83 86 5
83 87 2
83 88 3
83 89 4
83 90 4
83 91 1
83 92 3
83 93 5
83 94 1
83 95 3
83 96 2
83 97 5
83 98 4
83 99 3
83 100 4
84 85 1
84 86 4
84 87 3
84 88 1
84 89 4
84 90 1
84 91 5
84 92 2
84 93 3
84 94 2
84 95 1
84 96 4
84 97 2
84 98 5
84 99 1
84 100 2
85 86 5
85 87 3
85 88 4
85 89 3
85 90 3
85 91 3
85 92 1
85 93 4
85 94 5
85 95 1
85 96 4
85 97 2
85 98 2
85 99 2
85 100 5
86 87 4
86 88 2
86 89 1
86 90 2
86 91 1
86 92 4
86 93 5
86 94 1
86 95 3
86 96 1
86 97 2
86 98 2
86 99 4
86 100 4
87 88 5
87 89 5
87 90 5
87 91 5
87 92 3
87 93 1
87 94 4
87 95 3
87 96 1
87 97 2
87 98 2
87 99 4
87 100 4
88 89 3
88 90 1
88 91 4
88 92 5
88 93 1
88 94 4
88 95 4
88 96 5
88 97 1
88 98 2
88 99 3
88 100 5
89 90 1
89 91 3
89 92 5
89 93 5
89 94 1
89 95 5
89 96 5
89 97 1
89 98 4
89 99 1
89 100 1
90 91 4
90 92 4
90 93 2
90 94 2
90 95 2
90 96 3
90 97 5
90 98 3
90 99 3
90 100 1
91 92 5
91 93 3
91 94 2
91 95 3
91 96 5
91 97 1
91 98 4
91 99 5
91 100 5
92 93 5
92 94 5
92 95 1
92 96 5
92 97 5
92 98 1
92 99 5
92 100 1
93 94 1
93 95 1
93 96 2
93 97 2
93 98 5
93 99 5
93 100 3
94 95 5
94 96 5
94 97 4
94 98 5
94 99 5
94 100 2
95 96 3
95 97 2
95 98 3
95 99 3
95 100 4
96 97 2
96 98 4
96 99 1
96 100 1
97 98 2
97 99 3
97 100 5
98 99 3
98 100 3
99 100 1
